p tw 40 98
0 1
0 4
0 10
0 28
0 24
1 3
1 6
1 23
1 28
1 36
1 33
1 32
1 9
1 4
2 3
2 15
2 19
2 12
2 16
3 22
3 26
3 19
3 7
3 38
4 5
4 19
4 30
4 31
5 10
5 22
6 7
6 10
6 16
6 19
6 29
6 23
6 13
7 18
7 34
7 14
7 20
7 31
8 9
8 14
8 15
8 30
9 14
9 20
9 23
9 12
9 37
9 34
10 11
10 12
10 16
10 32
11 28
11 22
11 12
12 13
12 15
12 32
12 17
13 27
13 15
13 37
15 26
15 35
16 17
16 19
16 33
16 34
16 22
17 26
17 18
18 35
19 31
19 21
20 24
21 22
22 26
22 33
22 29
23 27
23 28
23 36
24 25
24 39
25 26
25 35
25 29
25 32
26 29
26 32
28 34
29 30
30 37
34 38
